c FILE: random-n100-d20-h-n100-d20-1.col

p edge 100 990
e 1 4
e 1 5
e 1 9
e 1 12
e 1 14
e 1 16
e 1 17
e 1 18
e 1 21
e 1 31
e 1 33
e 1 45
e 1 46
e 1 49
e 1 61
e 1 63
e 1 66
e 1 70
e 1 71
e 1 78
e 1 83
e 1 89
e 1 92
e 1 94
e 2 8
e 2 9
e 2 11
e 2 12
e 2 26
e 2 35
e 2 36
e 2 38
e 2 40
e 2 47
e 2 50
e 2 52
e 2 63
e 2 67
e 2 73
e 2 74
e 2 76
e 2 79
e 2 83
e 2 86
e 2 88
e 2 96
e 2 98
e 3 7
e 3 15
e 3 16
e 3 17
e 3 22
e 3 28
e 3 36
e 3 48
e 3 50
e 3 52
e 3 56
e 3 57
e 3 67
e 3 68
e 3 70
e 3 73
e 3 76
e 3 84
e 3 89
e 3 93
e 3 95
e 3 97
e 3 100
e 4 12
e 4 13
e 4 20
e 4 22
e 4 25
e 4 30
e 4 33
e 4 39
e 4 41
e 4 42
e 4 45
e 4 49
e 4 53
e 4 57
e 4 64
e 4 66
e 4 72
e 4 74
e 4 76
e 4 77
e 4 89
e 4 91
e 4 96
e 5 29
e 5 41
e 5 44
e 5 46
e 5 51
e 5 54
e 5 55
e 5 60
e 5 65
e 5 67
e 5 79
e 5 80
e 5 84
e 5 93
e 5 94
e 5 100
e 6 8
e 6 13
e 6 14
e 6 31
e 6 34
e 6 38
e 6 39
e 6 40
e 6 42
e 6 48
e 6 56
e 6 57
e 6 58
e 6 60
e 6 61
e 6 67
e 6 73
e 6 80
e 6 83
e 6 92
e 6 95
e 6 96
e 7 17
e 7 20
e 7 22
e 7 30
e 7 32
e 7 40
e 7 42
e 7 43
e 7 48
e 7 50
e 7 51
e 7 54
e 7 59
e 7 60
e 7 62
e 7 68
e 7 76
e 7 79
e 7 80
e 7 81
e 7 86
e 7 96
e 8 14
e 8 23
e 8 56
e 8 63
e 8 66
e 8 80
e 8 84
e 8 87
e 8 99
e 9 13
e 9 14
e 9 15
e 9 29
e 9 44
e 9 50
e 9 53
e 9 63
e 9 66
e 9 69
e 9 71
e 9 72
e 9 73
e 9 75
e 9 76
e 9 77
e 9 79
e 9 80
e 9 81
e 9 86
e 9 93
e 9 94
e 9 97
e 9 100
e 10 16
e 10 19
e 10 22
e 10 24
e 10 31
e 10 36
e 10 37
e 10 40
e 10 42
e 10 44
e 10 46
e 10 47
e 10 51
e 10 54
e 10 62
e 10 66
e 10 80
e 10 88
e 10 92
e 10 94
e 10 98
e 11 19
e 11 20
e 11 23
e 11 31
e 11 37
e 11 42
e 11 47
e 11 52
e 11 57
e 11 63
e 11 67
e 11 76
e 11 77
e 11 83
e 11 85
e 11 91
e 11 93
e 11 94
e 11 96
e 11 100
e 12 19
e 12 22
e 12 24
e 12 25
e 12 28
e 12 33
e 12 46
e 12 47
e 12 50
e 12 59
e 12 63
e 12 71
e 12 84
e 12 89
e 12 99
e 13 15
e 13 25
e 13 50
e 13 59
e 13 67
e 13 68
e 13 71
e 13 73
e 13 74
e 13 76
e 13 83
e 13 87
e 13 94
e 13 96
e 14 16
e 14 22
e 14 26
e 14 32
e 14 42
e 14 46
e 14 52
e 14 55
e 14 62
e 14 63
e 14 68
e 14 88
e 14 100
e 15 21
e 15 23
e 15 25
e 15 34
e 15 41
e 15 45
e 15 52
e 15 55
e 15 57
e 15 59
e 15 60
e 15 62
e 15 67
e 15 70
e 15 81
e 15 85
e 15 90
e 15 91
e 15 95
e 15 99
e 16 17
e 16 21
e 16 45
e 16 49
e 16 55
e 16 58
e 16 65
e 16 67
e 16 69
e 16 82
e 16 91
e 16 93
e 16 95
e 16 98
e 16 100
e 17 29
e 17 38
e 17 43
e 17 48
e 17 53
e 17 55
e 17 59
e 17 66
e 17 68
e 17 71
e 17 74
e 17 80
e 17 96
e 17 98
e 18 22
e 18 28
e 18 30
e 18 42
e 18 50
e 18 58
e 18 60
e 18 66
e 18 67
e 18 68
e 18 77
e 18 79
e 18 87
e 18 89
e 18 91
e 18 97
e 18 98
e 19 21
e 19 23
e 19 26
e 19 30
e 19 32
e 19 33
e 19 36
e 19 50
e 19 51
e 19 60
e 19 70
e 19 76
e 19 82
e 19 86
e 19 88
e 19 91
e 19 95
e 20 22
e 20 34
e 20 42
e 20 46
e 20 49
e 20 52
e 20 53
e 20 55
e 20 56
e 20 62
e 20 77
e 20 81
e 20 84
e 20 86
e 20 90
e 21 25
e 21 35
e 21 37
e 21 39
e 21 40
e 21 42
e 21 44
e 21 47
e 21 49
e 21 57
e 21 59
e 21 60
e 21 67
e 21 79
e 21 89
e 21 95
e 22 24
e 22 37
e 22 40
e 22 46
e 22 52
e 22 57
e 22 63
e 22 64
e 22 66
e 22 82
e 22 87
e 22 95
e 22 96
e 23 24
e 23 25
e 23 27
e 23 28
e 23 30
e 23 32
e 23 39
e 23 41
e 23 67
e 23 70
e 23 74
e 23 75
e 23 78
e 23 80
e 23 84
e 23 92
e 23 96
e 23 99
e 24 29
e 24 50
e 24 64
e 24 66
e 24 77
e 24 87
e 24 99
e 25 28
e 25 31
e 25 32
e 25 40
e 25 45
e 25 46
e 25 49
e 25 57
e 25 65
e 25 68
e 25 70
e 25 71
e 25 78
e 25 81
e 25 89
e 25 92
e 25 94
e 25 96
e 26 41
e 26 45
e 26 50
e 26 61
e 26 77
e 26 83
e 26 87
e 26 90
e 26 91
e 26 93
e 26 100
e 27 32
e 27 38
e 27 42
e 27 48
e 27 53
e 27 54
e 27 58
e 27 60
e 27 73
e 27 80
e 27 83
e 27 99
e 28 31
e 28 37
e 28 43
e 28 56
e 28 57
e 28 60
e 28 66
e 28 72
e 28 79
e 28 85
e 28 89
e 28 96
e 28 98
e 28 100
e 29 30
e 29 41
e 29 44
e 29 48
e 29 50
e 29 52
e 29 54
e 29 56
e 29 57
e 29 60
e 29 63
e 29 64
e 29 77
e 29 78
e 29 79
e 29 80
e 29 98
e 30 33
e 30 36
e 30 38
e 30 42
e 30 43
e 30 47
e 30 51
e 30 53
e 30 58
e 30 67
e 30 71
e 30 77
e 30 83
e 30 93
e 30 94
e 30 99
e 31 39
e 31 45
e 31 56
e 31 67
e 31 70
e 31 78
e 31 93
e 32 33
e 32 41
e 32 47
e 32 50
e 32 52
e 32 57
e 32 60
e 32 66
e 32 73
e 32 74
e 32 81
e 32 87
e 33 37
e 33 45
e 33 49
e 33 51
e 33 56
e 33 57
e 33 60
e 33 72
e 33 75
e 33 81
e 33 82
e 33 92
e 33 95
e 33 98
e 33 99
e 33 100
e 34 36
e 34 40
e 34 41
e 34 42
e 34 52
e 34 53
e 34 61
e 34 63
e 34 66
e 34 71
e 34 80
e 34 81
e 34 84
e 34 91
e 34 97
e 34 98
e 35 38
e 35 40
e 35 43
e 35 47
e 35 50
e 35 53
e 35 55
e 35 60
e 35 61
e 35 62
e 35 74
e 35 86
e 35 88
e 35 89
e 35 94
e 35 95
e 35 99
e 36 49
e 36 51
e 36 61
e 36 65
e 36 68
e 36 70
e 36 74
e 36 83
e 36 84
e 36 89
e 36 97
e 37 43
e 37 50
e 37 51
e 37 53
e 37 73
e 37 85
e 37 86
e 37 89
e 37 91
e 37 94
e 37 96
e 37 97
e 38 39
e 38 41
e 38 46
e 38 49
e 38 50
e 38 56
e 38 61
e 38 66
e 38 68
e 38 73
e 38 75
e 38 78
e 38 87
e 38 89
e 38 93
e 38 94
e 39 40
e 39 46
e 39 47
e 39 48
e 39 50
e 39 53
e 39 54
e 39 55
e 39 61
e 39 63
e 39 72
e 39 73
e 39 78
e 39 79
e 39 82
e 39 86
e 39 92
e 39 95
e 39 98
e 39 99
e 40 49
e 40 50
e 40 51
e 40 57
e 40 64
e 40 65
e 40 66
e 40 68
e 40 69
e 40 70
e 40 77
e 40 90
e 40 92
e 40 100
e 41 45
e 41 54
e 41 62
e 41 72
e 41 76
e 41 80
e 41 81
e 41 84
e 41 86
e 41 94
e 41 95
e 42 51
e 42 54
e 42 72
e 42 84
e 42 86
e 42 88
e 42 89
e 42 90
e 42 98
e 43 51
e 43 57
e 43 68
e 43 72
e 43 77
e 43 78
e 43 81
e 43 82
e 43 99
e 44 52
e 44 58
e 44 66
e 44 68
e 44 83
e 44 85
e 44 88
e 44 90
e 44 97
e 44 100
e 45 52
e 45 54
e 45 57
e 45 63
e 45 65
e 45 68
e 45 73
e 45 77
e 45 80
e 45 98
e 46 53
e 46 60
e 46 65
e 46 75
e 46 76
e 46 79
e 46 80
e 46 83
e 46 85
e 46 92
e 46 97
e 47 51
e 47 53
e 47 60
e 47 66
e 47 71
e 47 72
e 47 76
e 47 81
e 47 82
e 47 89
e 47 96
e 48 49
e 48 54
e 48 59
e 48 60
e 48 66
e 48 71
e 48 78
e 48 79
e 48 82
e 48 87
e 48 91
e 49 52
e 49 56
e 49 58
e 49 62
e 49 68
e 49 71
e 49 74
e 49 76
e 49 77
e 49 79
e 49 83
e 49 99
e 50 54
e 50 61
e 50 72
e 50 73
e 50 76
e 50 81
e 50 91
e 50 94
e 50 96
e 51 54
e 51 67
e 51 71
e 51 73
e 51 78
e 51 80
e 51 86
e 51 93
e 52 60
e 52 64
e 52 66
e 52 70
e 52 81
e 52 87
e 52 90
e 52 95
e 52 98
e 53 61
e 53 62
e 53 85
e 53 89
e 53 92
e 53 100
e 54 67
e 54 71
e 54 82
e 54 83
e 54 85
e 54 86
e 54 88
e 54 90
e 54 91
e 54 95
e 54 96
e 54 98
e 55 66
e 55 68
e 55 70
e 55 80
e 55 82
e 55 86
e 55 87
e 56 71
e 56 74
e 56 91
e 56 93
e 56 98
e 57 61
e 57 77
e 57 79
e 57 81
e 57 85
e 57 90
e 57 93
e 57 95
e 57 97
e 58 62
e 58 70
e 58 72
e 58 78
e 58 86
e 58 93
e 58 98
e 59 68
e 59 71
e 59 74
e 59 78
e 59 79
e 59 81
e 59 86
e 59 88
e 59 100
e 60 65
e 60 67
e 60 69
e 60 71
e 60 79
e 60 82
e 60 93
e 61 62
e 61 68
e 61 72
e 61 75
e 61 76
e 61 86
e 61 88
e 61 95
e 62 66
e 62 72
e 62 73
e 62 77
e 62 78
e 62 88
e 62 98
e 62 99
e 62 100
e 63 64
e 63 66
e 63 67
e 63 71
e 63 72
e 63 79
e 63 87
e 63 90
e 63 92
e 63 96
e 63 99
e 64 72
e 64 79
e 64 94
e 64 100
e 65 89
e 65 94
e 65 98
e 66 69
e 66 71
e 66 72
e 66 75
e 66 76
e 66 81
e 66 85
e 66 89
e 66 94
e 67 70
e 67 77
e 67 79
e 67 86
e 67 89
e 67 92
e 67 98
e 68 70
e 68 75
e 68 76
e 68 79
e 68 82
e 68 86
e 68 88
e 69 77
e 69 81
e 69 82
e 70 72
e 70 81
e 70 91
e 70 94
e 70 97
e 71 72
e 71 73
e 71 80
e 71 85
e 71 87
e 71 88
e 71 90
e 71 91
e 71 93
e 72 82
e 72 86
e 72 96
e 72 99
e 73 78
e 73 84
e 73 85
e 73 87
e 74 75
e 74 78
e 74 80
e 74 85
e 74 86
e 74 88
e 74 91
e 74 93
e 74 95
e 74 98
e 75 78
e 75 84
e 75 86
e 75 89
e 75 91
e 75 96
e 75 97
e 75 99
e 76 80
e 76 85
e 76 86
e 76 89
e 76 96
e 77 79
e 77 81
e 77 93
e 77 99
e 78 79
e 78 86
e 79 81
e 79 84
e 79 88
e 80 82
e 80 93
e 80 100
e 81 90
e 81 91
e 81 93
e 81 95
e 81 96
e 81 97
e 82 89
e 82 92
e 82 98
e 84 85
e 84 94
e 85 87
e 85 89
e 85 90
e 85 97
e 85 100
e 86 89
e 86 96
e 86 97
e 86 99
e 87 90
e 87 94
e 87 95
e 87 100
e 88 89
e 88 90
e 88 95
e 88 96
e 88 97
e 88 99
e 88 100
e 89 95
e 90 94
e 91 94
e 91 98
e 94 95
e 94 99
e 96 97
e 96 100
e 97 100